set VV := 0 1 2 3 4 5 6 7 8 9 10 11 12 13 14 15 16 ;
set VS := 0 1 2 3 4 5 6 7 8 9 10 11 12 13 14 15 16 17 18 19 20 21 22 23 24 25 26 27 28 29 30 31 32 33 34 35 36 37 38 ;
param cv := 
0 17
1 12
2 13
3 14
4 18
5 23
6 17
7 12
8 22
9 21
10 24
11 13
12 23
13 12
14 15
15 15
16 23
;
param cs := 
0 40
1 29
2 24
3 22
4 40
5 35
6 28
7 40
8 33
9 21
10 37
11 21
12 26
13 33
14 35
15 21
16 33
17 37
18 27
19 22
20 37
21 38
22 28
23 27
24 34
25 40
26 31
27 34
28 30
29 30
30 23
31 35
32 39
33 23
34 40
35 26
36 35
37 32
38 21
;
param bv:	 0 1 2 3 4 5 6 7 8 9 10 11 12 13 14 15 16 := 
		0 0 0 10 14 0 0 23 0 10 0 0 0 0 0 0 0 0 
		1 0 0 0 0 0 0 0 0 0 22 0 0 0 0 0 10 0 
		2 0 0 0 0 0 0 0 0 0 0 0 0 0 0 0 0 0 
		3 0 0 0 0 0 0 0 0 0 20 0 0 0 0 0 0 0 
		4 0 0 0 0 0 0 0 17 0 0 0 0 0 0 11 0 0 
		5 0 0 0 0 0 0 0 0 11 0 0 0 0 0 0 0 0 
		6 0 0 0 0 0 0 0 0 0 0 0 0 0 0 0 0 11 
		7 0 0 0 0 0 0 0 0 0 0 0 10 0 18 0 0 0 
		8 0 0 0 0 0 0 0 0 0 0 24 10 0 0 0 19 0 
		9 0 0 0 0 0 0 0 0 0 0 0 0 0 0 0 0 0 
		10 0 0 0 0 0 0 0 0 0 0 0 0 0 0 0 0 17 
		11 0 0 0 0 0 0 0 0 0 0 0 0 0 0 0 0 24 
		12 0 0 0 0 0 0 0 0 0 0 0 0 0 0 0 13 0 
		13 0 0 0 0 0 0 0 0 0 0 0 0 0 0 0 0 24 
		14 0 0 0 0 0 0 0 0 0 0 0 0 0 0 0 0 0 
		15 0 0 0 0 0 0 0 0 0 0 0 0 0 0 0 0 0 
		16 0 0 0 0 0 0 0 0 0 0 0 0 0 0 0 0 0 
;
param bs:	 0 1 2 3 4 5 6 7 8 9 10 11 12 13 14 15 16 17 18 19 20 21 22 23 24 25 26 27 28 29 30 31 32 33 34 35 36 37 38 := 
		0 0 0 0 0 0 0 0 0 0 0 0 0 0 0 0 0 0 0 20 0 0 0 0 0 0 0 0 0 0 0 0 0 0 30 0 0 0 0 0 
		1 0 0 0 0 22 0 0 0 0 0 0 0 0 0 0 0 0 0 0 35 0 0 0 0 0 0 0 0 0 0 0 0 0 0 22 0 0 0 0 
		2 0 0 0 0 0 0 0 0 22 0 0 0 0 0 0 0 0 0 0 0 0 0 32 0 0 24 0 0 0 0 0 0 0 0 24 21 0 0 0 
		3 0 0 0 0 0 29 0 0 0 0 0 0 0 0 0 0 0 0 0 0 0 0 0 0 0 0 0 0 0 0 0 0 0 0 0 0 0 0 0 
		4 0 22 0 0 0 0 0 0 0 0 38 0 0 39 0 0 0 0 35 39 0 0 0 27 0 0 0 0 0 0 0 0 0 0 0 0 0 0 0 
		5 0 0 0 29 0 0 30 0 0 0 22 0 0 0 0 0 0 30 0 0 38 0 0 0 0 0 0 0 0 0 0 0 22 0 20 0 0 32 0 
		6 0 0 0 0 0 30 0 0 0 0 0 0 0 0 0 0 0 0 26 0 0 0 0 0 0 0 0 0 38 0 0 0 0 0 38 0 0 0 0 
		7 0 0 0 0 0 0 0 0 0 0 0 0 0 0 0 0 0 0 0 0 0 0 0 0 0 0 0 0 0 0 28 34 0 0 0 34 0 31 0 
		8 0 0 22 0 0 0 0 0 0 0 0 0 0 0 0 0 0 0 0 0 0 28 0 0 0 0 36 0 0 0 0 0 0 0 0 0 36 0 0 
		9 0 0 0 0 0 0 0 0 0 0 0 0 27 0 0 0 0 0 0 0 0 0 0 0 0 0 34 0 0 28 0 26 0 0 0 0 0 0 30 
		10 0 0 0 0 38 22 0 0 0 0 0 0 40 0 0 0 0 0 0 0 0 0 0 32 0 0 0 36 0 22 0 0 0 0 0 0 0 0 21 
		11 0 0 0 0 0 0 0 0 0 0 0 0 0 0 0 0 0 0 0 0 0 0 35 0 0 0 38 0 0 0 0 0 0 0 21 0 0 0 0 
		12 0 0 0 0 0 0 0 0 0 27 40 0 0 0 0 0 0 0 0 0 0 0 0 0 0 0 24 30 0 0 0 0 0 0 0 0 0 22 0 
		13 0 0 0 0 39 0 0 0 0 0 0 0 0 0 0 0 0 0 27 0 0 0 0 0 0 0 0 34 0 0 0 23 0 0 0 0 0 0 0 
		14 0 0 0 0 0 0 0 0 0 0 0 0 0 0 0 0 0 0 0 0 0 0 0 0 0 0 0 0 0 38 0 0 0 0 0 0 0 0 0 
		15 0 0 0 0 0 0 0 0 0 0 0 0 0 0 0 0 0 0 31 0 0 0 0 0 0 0 0 0 0 0 0 28 0 0 0 0 0 0 0 
		16 0 0 0 0 0 0 0 0 0 0 0 0 0 0 0 0 0 33 0 0 0 0 0 0 0 0 0 0 0 0 27 28 0 24 0 0 26 0 0 
		17 0 0 0 0 0 30 0 0 0 0 0 0 0 0 0 0 33 0 0 0 0 31 0 0 0 0 0 0 20 40 0 0 0 0 0 0 28 0 0 
		18 20 0 0 0 35 0 26 0 0 0 0 0 0 27 0 31 0 0 0 0 0 34 0 0 0 0 0 0 0 0 0 0 0 0 0 0 32 0 0 
		19 0 35 0 0 39 0 0 0 0 0 0 0 0 0 0 0 0 0 0 0 0 0 0 31 0 0 0 0 0 0 0 0 28 0 0 0 0 0 0 
		20 0 0 0 0 0 38 0 0 0 0 0 0 0 0 0 0 0 0 0 0 0 0 0 0 21 0 0 0 0 38 0 0 0 0 0 33 0 0 0 
		21 0 0 0 0 0 0 0 0 28 0 0 0 0 0 0 0 0 31 34 0 0 0 0 0 0 0 0 0 0 0 0 0 0 0 0 0 0 34 0 
		22 0 0 32 0 0 0 0 0 0 0 0 35 0 0 0 0 0 0 0 0 0 0 0 0 0 32 0 0 0 0 0 25 0 0 0 36 0 0 0 
		23 0 0 0 0 27 0 0 0 0 0 32 0 0 0 0 0 0 0 0 31 0 0 0 0 0 0 0 0 0 0 0 0 0 0 0 0 0 0 0 
		24 0 0 0 0 0 0 0 0 0 0 0 0 0 0 0 0 0 0 0 0 21 0 0 0 0 0 0 26 0 0 31 0 0 0 0 0 0 0 0 
		25 0 0 24 0 0 0 0 0 0 0 0 0 0 0 0 0 0 0 0 0 0 0 32 0 0 0 0 0 0 24 0 0 0 0 0 0 0 0 0 
		26 0 0 0 0 0 0 0 0 36 34 0 38 24 0 0 0 0 0 0 0 0 0 0 0 0 0 0 0 0 34 0 0 0 0 0 0 0 0 21 
		27 0 0 0 0 0 0 0 0 0 0 36 0 30 34 0 0 0 0 0 0 0 0 0 0 26 0 0 0 0 0 0 0 34 0 0 0 0 0 0 
		28 0 0 0 0 0 0 38 0 0 0 0 0 0 0 0 0 0 20 0 0 0 0 0 0 0 0 0 0 0 0 0 0 0 0 0 24 0 34 37 
		29 0 0 0 0 0 0 0 0 0 28 22 0 0 0 38 0 0 40 0 0 38 0 0 0 0 24 34 0 0 0 0 0 0 0 0 27 0 0 0 
		30 0 0 0 0 0 0 0 28 0 0 0 0 0 0 0 0 27 0 0 0 0 0 0 0 31 0 0 0 0 0 0 0 0 0 0 0 0 0 0 
		31 0 0 0 0 0 0 0 34 0 26 0 0 0 23 0 28 28 0 0 0 0 0 25 0 0 0 0 0 0 0 0 0 0 0 0 0 0 0 0 
		32 0 0 0 0 0 22 0 0 0 0 0 0 0 0 0 0 0 0 0 28 0 0 0 0 0 0 0 34 0 0 0 0 0 0 0 0 0 0 0 
		33 30 0 0 0 0 0 0 0 0 0 0 0 0 0 0 0 24 0 0 0 0 0 0 0 0 0 0 0 0 0 0 0 0 0 0 0 0 0 0 
		34 0 22 24 0 0 20 38 0 0 0 0 21 0 0 0 0 0 0 0 0 0 0 0 0 0 0 0 0 0 0 0 0 0 0 0 0 0 0 0 
		35 0 0 21 0 0 0 0 34 0 0 0 0 0 0 0 0 0 0 0 0 33 0 36 0 0 0 0 0 24 27 0 0 0 0 0 0 0 0 0 
		36 0 0 0 0 0 0 0 0 36 0 0 0 0 0 0 0 26 28 32 0 0 0 0 0 0 0 0 0 0 0 0 0 0 0 0 0 0 0 0 
		37 0 0 0 0 0 32 0 31 0 0 0 0 22 0 0 0 0 0 0 0 0 34 0 0 0 0 0 0 34 0 0 0 0 0 0 0 0 0 0 
		38 0 0 0 0 0 0 0 0 0 30 21 0 0 0 0 0 0 0 0 0 0 0 0 0 0 0 21 0 37 0 0 0 0 0 0 0 0 0 0 
;
